DATASET = "thpack1";
INSTANCE = "023";

WIDTH = 233;
HEIGHT = 220;
LENGTH = 587;

NO_OF_SHAPES = 3;
size = [|
  84,81,23 |
  115,72,64 |
  77,49,25 |
|];

verticality = [|
  0,0,1 |
  1,1,1 |
  0,1,1 |
|];

box_count = [
  50,
  34,
  44,
];
